MARKOV
676
 2 2 2 2 2 2 2 2 2 2 2 2 2 2 2 2 2 2 2 2 2 2 2 2 2 2 2 2 2 2 2 2 2 2 2 2 2 2 2 2 2 2 2 2 2 2 2 2 2 2 2 2 2 2 2 2 2 2 2 2 2 2 2 2 2 2 2 2 2 2 2 2 2 2 2 2 2 2 2 2 2 2 2 2 2 2 2 2 2 2 2 2 2 2 2 2 2 2 2 2 2 2 2 2 2 2 2 2 2 2 2 2 2 2 2 2 2 2 2 2 2 2 2 2 2 2 2 2 2 2 2 2 2 2 2 2 2 2 2 2 2 2 2 2 2 2 2 2 2 2 2 2 2 2 2 2 2 2 2 2 2 2 2 2 2 2 2 2 2 2 2 2 2 2 2 2 2 2 2 2 2 2 2 2 2 2 2 2 2 2 2 2 2 2 2 2 2 2 2 2 2 2 2 2 2 2 2 2 2 2 2 2 2 2 2 2 2 2 2 2 2 2 2 2 2 2 2 2 2 2 2 2 2 2 2 2 2 2 2 2 2 2 2 2 2 2 2 2 2 2 2 2 2 2 2 2 2 2 2 2 2 2 2 2 2 2 2 2 2 2 2 2 2 2 2 2 2 2 2 2 2 2 2 2 2 2 2 2 2 2 2 2 2 2 2 2 2 2 2 2 2 2 2 2 2 2 2 2 2 2 2 2 2 2 2 2 2 2 2 2 2 2 2 2 2 2 2 2 2 2 2 2 2 2 2 2 2 2 2 2 2 2 2 2 2 2 2 2 2 2 2 2 2 2 2 2 2 2 2 2 2 2 2 2 2 2 2 2 2 2 2 2 2 2 2 2 2 2 2 2 2 2 2 2 2 2 2 2 2 2 2 2 2 2 2 2 2 2 2 2 2 2 2 2 2 2 2 2 2 2 2 2 2 2 2 2 2 2 2 2 2 2 2 2 2 2 2 2 2 2 2 2 2 2 2 2 2 2 2 2 2 2 2 2 2 2 2 2 2 2 2 2 2 2 2 2 2 2 2 2 2 2 2 2 2 2 2 2 2 2 2 2 2 2 2 2 2 2 2 2 2 2 2 2 2 2 2 2 2 2 2 2 2 2 2 2 2 2 2 2 2 2 2 2 2 2 2 2 2 2 2 2 2 2 2 2 2 2 2 2 2 2 2 2 2 2 2 2 2 2 2 2 2 2 2 2 2 2 2 2 2 2 2 2 2 2 2 2 2 2 2 2 2 2 2 2 2 2 2 2 2 2 2 2 2 2 2 2 2 2 2 2 2 2 2 2 2 2 2 2 2 2 2 2 2 2 2 2 2 2 2 2 2 2 2 2 2 2 2 2 2 2 2 2 2 2 2 2 2 2 2 2 2 2 2 2 2 2 2 2 2 2 2 2 2 2 2 2 2 2 2 2 2 2 2 2 2 2 2 2 2 2 2 2 2 2 2 2 2 2 2 2 2 2 2 2 2 2 2 2 2 2 2 2 2 2 2 2 2 2 2 2 2 2 2 2
686
3	75 151 675 
3	217 674 675 
3	183 673 674 
1	673 
3	46 86 672 
3	178 671 672 
3	112 670 671 
3	84 669 670 
3	87 668 669 
3	20 667 668 
3	161 666 667 
3	94 665 666 
3	49 664 665 
3	176 663 664 
3	41 662 663 
3	110 661 662 
3	123 660 661 
3	181 659 660 
3	130 658 659 
3	28 657 658 
3	36 656 657 
3	68 655 656 
3	90 654 655 
3	82 653 654 
3	42 652 653 
3	85 651 652 
3	89 650 651 
3	11 649 650 
3	218 648 649 
3	34 647 648 
3	168 646 647 
3	224 645 646 
3	179 644 645 
3	63 643 644 
3	62 642 643 
3	10 641 642 
3	127 640 641 
3	19 639 640 
3	194 638 639 
3	15 637 638 
3	47 636 637 
3	199 635 636 
3	52 634 635 
3	92 633 634 
3	74 632 633 
3	2 631 632 
3	160 630 631 
3	209 629 630 
3	138 628 629 
3	30 627 628 
3	201 626 627 
3	24 625 626 
3	33 624 625 
3	54 623 624 
3	9 622 623 
3	147 621 622 
3	165 620 621 
3	136 619 620 
3	4 618 619 
3	79 617 618 
3	1 616 617 
3	113 615 616 
3	53 614 615 
3	77 613 614 
3	149 612 613 
3	38 611 612 
3	163 610 611 
3	29 609 610 
3	215 608 609 
3	133 607 608 
3	83 606 607 
3	145 605 606 
3	220 604 605 
3	177 603 604 
1	603 
3	105 169 602 
3	86 601 602 
3	0 600 601 
3	174 599 600 
3	143 598 599 
3	207 597 598 
3	104 596 597 
3	150 595 596 
3	35 594 595 
3	225 593 594 
3	198 592 593 
3	210 591 592 
3	213 590 591 
3	73 589 590 
3	168 588 589 
3	137 587 588 
3	62 586 587 
3	10 585 586 
3	191 584 585 
3	167 583 584 
3	205 582 583 
3	16 581 582 
3	185 580 581 
3	157 579 580 
3	211 578 579 
3	118 577 578 
3	64 576 577 
3	129 575 576 
3	216 574 575 
3	187 573 574 
3	91 572 573 
3	182 571 572 
3	78 570 571 
3	9 569 570 
3	124 568 569 
3	146 567 568 
3	117 566 567 
3	126 565 566 
3	195 564 565 
3	200 563 564 
3	83 562 563 
3	116 561 562 
3	173 560 561 
3	156 559 560 
3	190 558 559 
3	125 557 558 
3	84 556 557 
3	87 555 556 
3	20 554 555 
3	23 553 554 
3	80 552 553 
3	88 551 552 
3	206 550 551 
3	154 549 550 
3	128 548 549 
3	100 547 548 
3	142 546 547 
3	51 545 546 
3	218 544 545 
3	7 543 544 
3	192 542 543 
3	135 541 542 
3	152 540 541 
3	119 539 540 
3	127 538 539 
3	153 537 538 
3	222 536 537 
3	76 535 536 
3	114 534 535 
3	55 533 534 
3	175 532 533 
3	171 531 532 
3	12 530 531 
3	8 529 530 
3	44 528 529 
3	99 527 528 
3	189 526 527 
3	95 525 526 
3	133 524 525 
3	132 523 524 
3	141 522 523 
3	50 521 522 
3	121 520 521 
1	520 
3	58 66 519 
3	6 518 519 
3	96 517 518 
3	213 516 517 
3	17 515 516 
3	71 514 515 
3	139 513 514 
3	76 512 513 
3	196 511 512 
3	103 510 511 
3	217 509 510 
3	95 508 509 
3	80 507 508 
3	5 506 507 
3	39 505 506 
3	48 504 505 
3	153 503 504 
3	221 502 503 
1	502 
3	86 105 501 
3	174 500 501 
3	0 499 500 
3	143 498 499 
3	125 497 498 
3	150 496 497 
3	94 495 496 
3	88 494 495 
3	80 493 494 
3	39 492 493 
3	206 491 492 
3	155 490 491 
3	25 489 490 
3	110 488 489 
3	193 487 488 
3	210 486 487 
3	154 485 486 
3	128 484 485 
3	213 483 484 
3	60 482 483 
3	73 481 482 
3	139 480 481 
3	142 479 480 
3	51 478 479 
3	135 477 478 
3	191 476 477 
3	153 475 476 
3	205 474 475 
3	16 473 474 
3	185 472 473 
3	157 471 472 
3	96 470 471 
3	204 469 470 
3	118 468 469 
3	114 467 468 
3	187 466 467 
3	78 465 466 
3	175 464 465 
3	171 463 464 
3	12 462 463 
3	8 461 462 
3	6 460 461 
3	44 459 460 
3	71 458 459 
3	120 457 458 
3	126 456 457 
3	217 455 456 
3	99 454 455 
3	195 453 454 
3	95 452 453 
3	132 451 452 
3	141 450 451 
3	177 449 450 
3	121 448 449 
1	448 
3	5 75 447 
3	217 446 447 
3	25 445 446 
1	445 
3	58 66 444 
3	6 443 444 
3	96 442 443 
3	213 441 442 
3	17 440 441 
3	71 439 440 
3	76 438 439 
3	139 437 438 
3	196 436 437 
3	103 435 436 
3	217 434 435 
3	95 433 434 
3	80 432 433 
3	5 431 432 
3	39 430 431 
3	48 429 430 
3	153 428 429 
3	221 427 428 
3	193 426 427 
1	426 
3	86 105 425 
3	0 424 425 
3	174 423 424 
3	143 422 423 
3	125 421 422 
3	150 420 421 
3	80 419 420 
3	88 418 419 
3	206 417 418 
3	154 416 417 
3	210 415 416 
3	128 414 415 
3	213 413 414 
3	73 412 413 
3	142 411 412 
3	51 410 411 
3	135 409 410 
3	191 408 409 
3	153 407 408 
3	205 406 407 
3	16 405 406 
3	185 404 405 
3	157 403 404 
3	114 402 403 
3	187 401 402 
3	175 400 401 
3	78 399 400 
3	171 398 399 
3	12 397 398 
3	8 396 397 
3	44 395 396 
3	126 394 395 
3	99 393 394 
3	195 392 393 
3	95 391 392 
3	132 390 391 
3	141 389 390 
3	121 388 389 
1	388 
3	169 174 387 
3	56 386 387 
3	197 385 386 
3	94 384 385 
3	35 383 384 
3	40 382 383 
3	72 381 382 
3	210 380 381 
3	144 379 380 
3	122 378 379 
3	89 377 378 
3	109 376 377 
3	101 375 376 
3	22 374 375 
3	170 373 374 
3	191 372 373 
3	205 371 372 
3	185 370 371 
3	157 369 370 
3	118 368 369 
3	204 367 368 
3	64 366 367 
3	201 365 366 
3	187 364 365 
3	75 363 364 
3	91 362 363 
3	79 361 362 
3	71 360 361 
3	45 359 360 
3	14 358 359 
3	83 357 358 
3	116 356 357 
3	188 355 356 
3	84 354 355 
3	196 353 354 
3	159 352 353 
3	32 351 352 
3	59 350 351 
3	87 349 350 
3	219 348 349 
3	69 347 348 
3	61 346 347 
3	88 345 346 
3	41 344 345 
3	206 343 344 
3	110 342 343 
3	123 341 342 
3	202 340 341 
3	66 339 340 
3	128 338 339 
3	60 337 338 
3	11 336 337 
3	111 335 336 
3	51 334 335 
3	212 333 334 
3	184 332 333 
3	179 331 332 
3	152 330 331 
3	19 329 330 
3	48 328 329 
3	5 327 328 
3	153 326 327 
3	47 325 326 
3	115 324 325 
3	58 323 324 
3	158 322 323 
3	18 321 322 
3	76 320 321 
3	98 319 320 
3	203 318 319 
3	171 317 318 
3	70 316 317 
3	8 315 316 
3	134 314 315 
3	53 313 314 
3	131 312 313 
3	99 311 312 
3	95 310 311 
3	208 309 310 
3	81 308 309 
3	177 307 308 
3	148 306 307 
3	105 305 306 
3	108 304 305 
3	86 303 304 
3	46 302 303 
3	0 301 302 
3	143 300 301 
3	207 299 300 
3	31 298 299 
3	150 297 298 
3	39 296 297 
3	176 295 296 
3	214 294 295 
3	25 293 294 
3	193 292 293 
3	213 291 292 
3	139 290 291 
3	73 289 290 
3	168 288 289 
3	102 287 288 
3	194 286 287 
3	166 285 286 
3	199 284 285 
3	16 283 284 
3	57 282 283 
3	97 281 282 
3	162 280 281 
3	216 279 280 
3	140 278 279 
3	27 277 278 
3	106 276 277 
3	182 275 276 
3	78 274 275 
3	124 273 274 
3	165 272 273 
3	146 271 272 
3	120 270 271 
3	117 269 270 
3	126 268 269 
3	103 267 268 
3	65 266 267 
3	217 265 266 
3	164 264 265 
3	195 263 264 
3	173 262 263 
3	93 261 262 
3	186 260 261 
3	190 259 260 
3	107 258 259 
3	125 257 258 
3	223 256 257 
3	172 255 256 
3	3 254 255 
3	20 253 254 
3	26 252 253 
3	23 251 252 
3	80 250 251 
3	155 249 250 
3	154 248 249 
3	17 247 248 
3	142 246 247 
3	218 245 246 
3	180 244 245 
3	135 243 244 
3	119 242 243 
3	96 241 242 
3	222 240 241 
3	114 239 240 
3	67 238 239 
3	43 237 238 
3	37 236 237 
3	175 235 236 
3	13 234 235 
3	12 233 234 
3	6 232 233 
3	44 231 232 
3	21 230 231 
3	132 229 230 
3	141 228 229 
3	50 227 228 
3	121 226 227 
1	226 
1	169 
1	174 
1	112 
1	56 
1	161 
1	197 
1	35 
1	94 
1	49 
1	40 
1	198 
1	181 
1	130 
1	72 
1	210 
1	144 
1	122 
1	85 
1	89 
1	109 
1	101 
1	22 
1	191 
1	170 
1	167 
1	205 
1	185 
1	157 
1	118 
1	204 
1	151 
1	64 
1	30 
1	201 
1	187 
1	75 
1	91 
1	9 
1	79 
1	113 
1	149 
1	71 
1	45 
1	14 
1	215 
1	200 
1	83 
1	116 
1	220 
1	188 
1	156 
1	221 
1	84 
1	196 
1	32 
1	159 
1	59 
1	219 
1	87 
1	69 
1	61 
1	88 
1	41 
1	206 
1	110 
1	202 
1	123 
1	66 
1	82 
1	128 
1	60 
1	11 
1	111 
1	51 
1	212 
1	184 
1	179 
1	192 
1	7 
1	63 
1	152 
1	127 
1	19 
1	5 
1	48 
1	153 
1	47 
1	115 
1	52 
1	58 
1	158 
1	92 
1	18 
1	76 
1	209 
1	98 
1	33 
1	203 
1	70 
1	171 
1	136 
1	4 
1	8 
1	134 
1	53 
1	131 
1	99 
1	29 
1	208 
1	95 
1	81 
1	177 
1	148 
1	105 
1	108 
1	86 
1	0 
1	46 
1	143 
1	207 
1	104 
1	31 
1	150 
1	225 
1	39 
1	176 
1	214 
1	25 
1	193 
1	36 
1	68 
1	90 
1	213 
1	73 
1	139 
1	34 
1	168 
1	137 
1	224 
1	62 
1	10 
1	102 
1	194 
1	166 
1	199 
1	16 
1	211 
1	57 
1	129 
1	162 
1	97 
1	183 
1	216 
1	140 
1	24 
1	106 
1	27 
1	182 
1	78 
1	124 
1	147 
1	165 
1	146 
1	77 
1	38 
1	120 
1	117 
1	65 
1	126 
1	103 
1	217 
1	163 
1	164 
1	195 
1	173 
1	93 
1	186 
1	190 
1	107 
1	125 
1	178 
1	223 
1	172 
1	3 
1	20 
1	26 
1	23 
1	80 
1	155 
1	28 
1	154 
1	42 
1	17 
1	100 
1	218 
1	142 
1	180 
1	135 
1	119 
1	15 
1	222 
1	96 
1	114 
1	74 
1	67 
1	55 
1	2 
1	160 
1	43 
1	138 
1	37 
1	54 
1	175 
1	13 
1	12 
1	6 
1	1 
1	44 
1	189 
1	21 
1	133 
1	145 
1	132 
1	141 
1	50 
1	121 
0	

8
 1 0 0.5 0.5 0.3 0.7 0.15 0.85
8
 1 0 0 1 0.05 0 0.95 1
8
 1 0 0 1 0.5 0 0.5 1
2
 0.03 1
8
 1 0 0.1 0.9 0.5 0.5 0.05 0.95
8
 1 0 0 1 0.5 0 0.5 1
8
 1 0 0 1 0.1 0 0.9 1
8
 1 0 0 1 0.1 0 0.9 1
8
 1 0 0 1 0.1 0 0.9 1
8
 1 0 0 1 0.09 0 0.91 1
8
 1 0 0 1 0.5 0 0.5 1
8
 1 0 0 1 0.01 0 0.99 1
8
 1 0 0 1 0.95 0 0.05 1
8
 1 0 0 1 0.5 0 0.5 1
8
 1 0 0 1 0.19 0 0.81 1
8
 1 0 0 1 0.01 0 0.99 1
8
 1 0 0 1 0.01 0 0.99 1
8
 1 0 0 1 0.09 0 0.91 1
8
 1 0 0 1 0.5 0 0.5 1
8
 1 0 0 1 0.01 0 0.99 1
8
 1 0 0 1 0.1 0 0.9 1
8
 1 0 0 1 0.05 0 0.95 1
8
 1 0 0 1 0.1 0 0.9 1
8
 1 0 0 1 0.19 0 0.81 1
8
 1 0 0 1 0.19 0 0.81 1
8
 1 0 0 1 0.1 0 0.9 1
8
 1 0 0 1 0.05 0 0.95 1
8
 1 0 0 1 0.5 0 0.5 1
8
 1 0 0 1 0.05 0 0.95 1
8
 1 0 0 1 0.01 0 0.99 1
8
 1 0 0 1 0.5 0 0.5 1
8
 1 0 0 1 0.2 0 0.8 1
8
 1 0 0 1 0.1 0 0.9 1
8
 1 0 0 1 0.5 0 0.5 1
8
 1 0 0 1 0.5 0 0.5 1
8
 1 0 0 1 0.95 0 0.05 1
8
 1 0 0 1 0.89 0 0.11 1
8
 1 0 0 1 0.5 0 0.5 1
8
 1 0 0 1 0.5 0 0.5 1
8
 1 0 0 1 0.01 0 0.99 1
8
 1 0 0 1 0.5 0 0.5 1
8
 1 0 0 1 0.2 0 0.8 1
8
 1 0 0 1 0.5 0 0.5 1
8
 1 0 0 1 0.5 0 0.5 1
8
 1 0 0 1 0.09 0 0.91 1
8
 1 0 0 1 0.19 0 0.81 1
8
 1 0 0 1 0.5 0 0.5 1
8
 1 0 0 1 0.09 0 0.91 1
8
 1 0 0 1 0.5 0 0.5 1
8
 1 0 0 1 0.59 0 0.41 1
8
 1 0 0 1 0.5 0 0.5 1
8
 1 0 0 1 0.1 0 0.9 1
8
 1 0 0 1 0.1 0 0.9 1
8
 1 0 0 1 0.01 0 0.99 1
8
 1 0 0 1 0.3 0 0.7 1
8
 1 0 0 1 0.1 0 0.9 1
8
 1 0 0 1 0.5 0 0.5 1
8
 1 0 0 1 0.5 0 0.5 1
8
 1 0 0 1 0.19 0 0.81 1
8
 1 0 0 1 0.5 0 0.5 1
8
 1 0 0 1 0.19 0 0.81 1
8
 1 0 0 1 0.09 0 0.91 1
8
 1 0 0 1 0.1 0 0.9 1
8
 1 0 0 1 0.5 0 0.5 1
8
 1 0 0 1 0.5 0 0.5 1
8
 1 0 0 1 0.59 0 0.41 1
8
 1 0 0 1 0.05 0 0.95 1
8
 1 0 0 1 0.19 0 0.81 1
8
 1 0 0 1 0.05 0 0.95 1
8
 1 0 0 1 0.2 0 0.8 1
8
 1 0 0 1 0.1 0 0.9 1
8
 1 0 0 1 0.5 0 0.5 1
8
 1 0 0 1 0.5 0 0.5 1
8
 1 0 0 1 0.1 0 0.9 1
2
 0.03 1
8
 1 0 0.9 0.1 0.05 0.95 0.045 0.955
8
 1 0 0 1 0.9 0 0.1 1
8
 1 0 0 1 0.05 0 0.95 1
8
 1 0 0 1 0.05 0 0.95 1
8
 1 0 0 1 0.05 0 0.95 1
8
 1 0 0 1 0.9 0 0.1 1
8
 1 0 0 1 0.3 0 0.7 1
8
 1 0 0 1 0.1 0 0.9 1
8
 1 0 0 1 0.9 0 0.1 1
8
 1 0 0 1 0.3 0 0.7 1
8
 1 0 0 1 0.3 0 0.7 1
8
 1 0 0 1 0.05 0 0.95 1
8
 1 0 0 1 0.05 0 0.95 1
8
 1 0 0 1 0.05 0 0.95 1
8
 1 0 0 1 0.5 0 0.5 1
8
 1 0 0 1 0.3 0 0.7 1
8
 1 0 0 1 0.5 0 0.5 1
8
 1 0 0 1 0.9 0 0.1 1
8
 1 0 0 1 0.05 0 0.95 1
8
 1 0 0 1 0.3 0 0.7 1
8
 1 0 0 1 0.05 0 0.95 1
8
 1 0 0 1 0.05 0 0.95 1
8
 1 0 0 1 0.05 0 0.95 1
8
 1 0 0 1 0.05 0 0.95 1
8
 1 0 0 1 0.5 0 0.5 1
8
 1 0 0 1 0.4 0 0.6 1
8
 1 0 0 1 0.9 0 0.1 1
8
 1 0 0 1 0.5 0 0.5 1
8
 1 0 0 1 0.7 0 0.3 1
8
 1 0 0 1 0.01 0 0.99 1
8
 1 0 0 1 0.9 0 0.1 1
8
 1 0 0 1 0.9 0 0.1 1
8
 1 0 0 1 0.05 0 0.95 1
8
 1 0 0 1 0.4 0 0.6 1
8
 1 0 0 1 0.9 0 0.1 1
8
 1 0 0 1 0.9 0 0.1 1
8
 1 0 0 1 0.75 0 0.25 1
8
 1 0 0 1 0.05 0 0.95 1
8
 1 0 0 1 0.05 0 0.95 1
8
 1 0 0 1 0.3 0 0.7 1
8
 1 0 0 1 0.9 0 0.1 1
8
 1 0 0 1 0.5 0 0.5 1
8
 1 0 0 1 0.9 0 0.1 1
8
 1 0 0 1 0.3 0 0.7 1
8
 1 0 0 1 0.5 0 0.5 1
8
 1 0 0 1 0.05 0 0.95 1
8
 1 0 0 1 0.9 0 0.1 1
8
 1 0 0 1 0.9 0 0.1 1
8
 1 0 0 1 0.9 0 0.1 1
8
 1 0 0 1 0.9 0 0.1 1
8
 1 0 0 1 0.05 0 0.95 1
8
 1 0 0 1 0.05 0 0.95 1
8
 1 0 0 1 0.05 0 0.95 1
8
 1 0 0 1 0.05 0 0.95 1
8
 1 0 0 1 0.05 0 0.95 1
8
 1 0 0 1 0.3 0 0.7 1
8
 1 0 0 1 0.05 0 0.95 1
8
 1 0 0 1 0.05 0 0.95 1
8
 1 0 0 1 0.9 0 0.1 1
8
 1 0 0 1 0.3 0 0.7 1
8
 1 0 0 1 0.5 0 0.5 1
8
 1 0 0 1 0.05 0 0.95 1
8
 1 0 0 1 0.1 0 0.9 1
8
 1 0 0 1 0.9 0 0.1 1
8
 1 0 0 1 0.89 0 0.11 1
8
 1 0 0 1 0.05 0 0.95 1
8
 1 0 0 1 0.9 0 0.1 1
8
 1 0 0 1 0.89 0 0.11 1
8
 1 0 0 1 0.05 0 0.95 1
8
 1 0 0 1 0.09 0 0.91 1
8
 1 0 0 1 0.05 0 0.95 1
8
 1 0 0 1 0.02 0 0.98 1
8
 1 0 0 1 0.05 0 0.95 1
8
 1 0 0 1 0.2 0 0.8 1
8
 1 0 0 1 0.05 0 0.95 1
8
 1 0 0 1 0.05 0 0.95 1
8
 1 0 0 1 0.3 0 0.7 1
8
 1 0 0 1 0.05 0 0.95 1
8
 1 0 0 1 0.4 0 0.6 1
8
 1 0 0 1 0.05 0 0.95 1
8
 1 0 0 1 0.05 0 0.95 1
8
 1 0 0 1 0.9 0 0.1 1
8
 1 0 0 1 0.05 0 0.95 1
2
 0.03 1
8
 1 0 0.57 0.43 0.5 0.5 0.285 0.715
8
 1 0 0 1 0.1 0 0.9 1
8
 1 0 0 1 0 0 1 1
8
 1 0 0 1 0.09 0 0.91 1
8
 1 0 0 1 0.5 0 0.5 1
8
 1 0 0 1 0.1 0 0.9 1
8
 1 0 0 1 0 0 1 1
8
 1 0 0 1 0.5 0 0.5 1
8
 1 0 0 1 0.5 0 0.5 1
8
 1 0 0 1 0.5 0 0.5 1
8
 1 0 0 1 0 0 1 1
8
 1 0 0 1 0.01 0 0.99 1
8
 1 0 0 1 0.5 0 0.5 1
8
 1 0 0 1 0.5 0 0.5 1
8
 1 0 0 1 0 0 1 1
8
 1 0 0 1 0.4 0 0.6 1
8
 1 0 0 1 0.1 0 0.9 1
8
 1 0 0 1 0.01 0 0.99 1
2
 0.03 1
8
 1 0 0 1 0 1 0 1
8
 1 0 0 1 0 0 1 1
8
 1 0 0 1 0 0 1 1
8
 1 0 0 1 0 0 1 1
8
 1 0 0 1 0 0 1 1
8
 1 0 0 1 0 0 1 1
8
 1 0 0 1 0 0 1 1
8
 1 0 0 1 0 0 1 1
8
 1 0 0 1 0 0 1 1
8
 1 0 0 1 0 0 1 1
8
 1 0 0 1 0 0 1 1
8
 1 0 0 1 0 0 1 1
8
 1 0 0 1 0 0 1 1
8
 1 0 0 1 0 0 1 1
8
 1 0 0 1 0 0 1 1
8
 1 0 0 1 0 0 1 1
8
 1 0 0 1 0 0 1 1
8
 1 0 0 1 0 0 1 1
8
 1 0 0 1 0 0 1 1
8
 1 0 0 1 0 0 1 1
8
 1 0 0 1 0 0 1 1
8
 1 0 0 1 0 0 1 1
8
 1 0 0 1 0 0 1 1
8
 1 0 0 1 0 0 1 1
8
 1 0 0 1 0 0 1 1
8
 1 0 0 1 0 0 1 1
8
 1 0 0 1 0 0 1 1
8
 1 0 0 1 0 0 1 1
8
 1 0 0 1 0 0 1 1
8
 1 0 0 1 0 0 1 1
8
 1 0 0 1 0 0 1 1
8
 1 0 0 1 0 0 1 1
8
 1 0 0 1 0 0 1 1
8
 1 0 0 1 0 0 1 1
8
 1 0 0 1 0 0 1 1
8
 1 0 0 1 0 0 1 1
8
 1 0 0 1 0 0 1 1
8
 1 0 0 1 0 0 1 1
8
 1 0 0 1 0 0 1 1
8
 1 0 0 1 0 0 1 1
8
 1 0 0 1 0 0 1 1
8
 1 0 0 1 0 0 1 1
8
 1 0 0 1 0 0 1 1
8
 1 0 0 1 0 0 1 1
8
 1 0 0 1 0 0 1 1
8
 1 0 0 1 0 0 1 1
8
 1 0 0 1 0 0 1 1
8
 1 0 0 1 0 0 1 1
8
 1 0 0 1 0 0 1 1
8
 1 0 0 1 0 0 1 1
8
 1 0 0 1 0 0 1 1
8
 1 0 0 1 0 0 1 1
8
 1 0 0 1 0 0 1 1
8
 1 0 0 1 0 0 1 1
2
 0.03 1
8
 1 0 0.3 0.7 0.5 0.5 0.15 0.85
8
 1 0 0 1 0 0 1 1
8
 1 0 0 1 0.01 0 0.99 1
2
 0.03 1
8
 1 0 0.57 0.43 0.5 0.5 0.285 0.715
8
 1 0 0 1 0.1 0 0.9 1
8
 1 0 0 1 0.01 0 0.99 1
8
 1 0 0 1 0.09 0 0.91 1
8
 1 0 0 1 0.5 0 0.5 1
8
 1 0 0 1 0.1 0 0.9 1
8
 1 0 0 1 0.5 0 0.5 1
8
 1 0 0 1 0.01 0 0.99 1
8
 1 0 0 1 0.5 0 0.5 1
8
 1 0 0 1 0.5 0 0.5 1
8
 1 0 0 1 0.05 0 0.95 1
8
 1 0 0 1 0.01 0 0.99 1
8
 1 0 0 1 0.5 0 0.5 1
8
 1 0 0 1 0.5 0 0.5 1
8
 1 0 0 1 0.01 0 0.99 1
8
 1 0 0 1 0.4 0 0.6 1
8
 1 0 0 1 0.1 0 0.9 1
8
 1 0 0 1 0.01 0 0.99 1
8
 1 0 0 1 0.2 0 0.8 1
2
 0.03 1
8
 1 0 0.05 0.95 0.05 0.95 0.0025 0.9975
8
 1 0 0 1 0.05 0 0.95 1
8
 1 0 0 1 0.05 0 0.95 1
8
 1 0 0 1 0.05 0 0.95 1
8
 1 0 0 1 0.05 0 0.95 1
8
 1 0 0 1 0.05 0 0.95 1
8
 1 0 0 1 0.05 0 0.95 1
8
 1 0 0 1 0.05 0 0.95 1
8
 1 0 0 1 0.05 0 0.95 1
8
 1 0 0 1 0.05 0 0.95 1
8
 1 0 0 1 0.05 0 0.95 1
8
 1 0 0 1 0.05 0 0.95 1
8
 1 0 0 1 0.05 0 0.95 1
8
 1 0 0 1 0.05 0 0.95 1
8
 1 0 0 1 0.05 0 0.95 1
8
 1 0 0 1 0.05 0 0.95 1
8
 1 0 0 1 0.05 0 0.95 1
8
 1 0 0 1 0.05 0 0.95 1
8
 1 0 0 1 0.05 0 0.95 1
8
 1 0 0 1 0.05 0 0.95 1
8
 1 0 0 1 0.05 0 0.95 1
8
 1 0 0 1 0.05 0 0.95 1
8
 1 0 0 1 0.05 0 0.95 1
8
 1 0 0 1 0.05 0 0.95 1
8
 1 0 0 1 0.05 0 0.95 1
8
 1 0 0 1 0.05 0 0.95 1
8
 1 0 0 1 0.05 0 0.95 1
8
 1 0 0 1 0.05 0 0.95 1
8
 1 0 0 1 0.05 0 0.95 1
8
 1 0 0 1 0.05 0 0.95 1
8
 1 0 0 1 0.05 0 0.95 1
8
 1 0 0 1 0.05 0 0.95 1
8
 1 0 0 1 0.05 0 0.95 1
8
 1 0 0 1 0.05 0 0.95 1
8
 1 0 0 1 0.05 0 0.95 1
8
 1 0 0 1 0.05 0 0.95 1
8
 1 0 0 1 0.05 0 0.95 1
8
 1 0 0 1 0.05 0 0.95 1
2
 0.03 1
8
 1 0 0 1 0.9 0.1 0 1
8
 1 0 0 1 0.2 0 0.8 1
8
 1 0 0 1 0.5 0 0.5 1
8
 1 0 0 1 0 0 1 1
8
 1 0 0 1 0.9 0 0.1 1
8
 1 0 0 1 0.5 0 0.5 1
8
 1 0 0 1 0.5 0 0.5 1
8
 1 0 0 1 0 0 1 1
8
 1 0 0 1 0.89 0 0.11 1
8
 1 0 0 1 0.5 0 0.5 1
8
 1 0 0 1 0.2 0 0.8 1
8
 1 0 0 1 0.1 0 0.9 1
8
 1 0 0 1 0.5 0 0.5 1
8
 1 0 0 1 0.5 0 0.5 1
8
 1 0 0 1 0.1 0 0.9 1
8
 1 0 0 1 0 0 1 1
8
 1 0 0 1 0.5 0 0.5 1
8
 1 0 0 1 0.01 0 0.99 1
8
 1 0 0 1 0 0 1 1
8
 1 0 0 1 0 0 1 1
8
 1 0 0 1 0 0 1 1
8
 1 0 0 1 0.9 0 0.1 1
8
 1 0 0 1 0.5 0 0.5 1
8
 1 0 0 1 0 0 1 1
8
 1 0 0 1 0.5 0 0.5 1
8
 1 0 0 1 0.9 0 0.1 1
8
 1 0 0 1 0.5 0 0.5 1
8
 1 0 0 1 0 0 1 1
8
 1 0 0 1 0.1 0 0.9 1
8
 1 0 0 1 0.5 0 0.5 1
8
 1 0 0 1 0.9 0 0.1 1
8
 1 0 0 1 0.5 0 0.5 1
8
 1 0 0 1 0.5 0 0.5 1
8
 1 0 0 1 0.9 0 0.1 1
8
 1 0 0 1 0.09 0 0.91 1
8
 1 0 0 1 0.5 0 0.5 1
8
 1 0 0 1 0.1 0 0.9 1
8
 1 0 0 1 0.5 0 0.5 1
8
 1 0 0 1 0.9 0 0.1 1
8
 1 0 0 1 0.09 0 0.91 1
8
 1 0 0 1 0.5 0 0.5 1
8
 1 0 0 1 0.5 0 0.5 1
8
 1 0 0 1 0 0 1 1
8
 1 0 0 1 0.5 0 0.5 1
8
 1 0 0 1 0 0 1 1
8
 1 0 0 1 0 0 1 1
8
 1 0 0 1 0.5 0 0.5 1
8
 1 0 0 1 0.1 0 0.9 1
8
 1 0 0 1 0.57 0 0.43 1
8
 1 0 0 1 0 0 1 1
8
 1 0 0 1 0 0 1 1
8
 1 0 0 1 0.5 0 0.5 1
8
 1 0 0 1 0.5 0 0.5 1
8
 1 0 0 1 0 0 1 1
8
 1 0 0 1 0.5 0 0.5 1
8
 1 0 0 1 0.1 0 0.9 1
8
 1 0 0 1 0.5 0 0.5 1
8
 1 0 0 1 0.1 0 0.9 1
8
 1 0 0 1 0.5 0 0.5 1
8
 1 0 0 1 0.4 0 0.6 1
8
 1 0 0 1 0.5 0 0.5 1
8
 1 0 0 1 0 0 1 1
8
 1 0 0 1 0.5 0 0.5 1
8
 1 0 0 1 0.9 0 0.1 1
8
 1 0 0 1 0.5 0 0.5 1
8
 1 0 0 1 0.89 0 0.11 1
8
 1 0 0 1 0.5 0 0.5 1
8
 1 0 0 1 0.5 0 0.5 1
8
 1 0 0 1 0.5 0 0.5 1
8
 1 0 0 1 0.5 0 0.5 1
8
 1 0 0 1 0 0 1 1
8
 1 0 0 1 0.1 0 0.9 1
8
 1 0 0 1 0.6 0 0.4 1
8
 1 0 0 1 0.5 0 0.5 1
8
 1 0 0 1 0.1 0 0.9 1
8
 1 0 0 1 0.5 0 0.5 1
8
 1 0 0 1 0 0 1 1
8
 1 0 0 1 0 0 1 1
8
 1 0 0 1 0.1 0 0.9 1
8
 1 0 0 1 0.59 0 0.41 1
8
 1 0 0 1 0 0 1 1
8
 1 0 0 1 0.4 0 0.6 1
8
 1 0 0 1 0 0 1 1
8
 1 0 0 1 0.5 0 0.5 1
8
 1 0 0 1 0.9 0 0.1 1
8
 1 0 0 1 0.5 0 0.5 1
8
 1 0 0 1 0 0 1 1
8
 1 0 0 1 0 0 1 1
8
 1 0 0 1 0.9 0 0.1 1
8
 1 0 0 1 0.5 0 0.5 1
8
 1 0 0 1 0.1 0 0.9 1
8
 1 0 0 1 0 0 1 1
8
 1 0 0 1 0.5 0 0.5 1
8
 1 0 0 1 0.09 0 0.91 1
8
 1 0 0 1 0 0 1 1
8
 1 0 0 1 0 0 1 1
8
 1 0 0 1 0 0 1 1
8
 1 0 0 1 0 0 1 1
8
 1 0 0 1 0 0 1 1
8
 1 0 0 1 0.5 0 0.5 1
8
 1 0 0 1 0.5 0 0.5 1
8
 1 0 0 1 0.5 0 0.5 1
8
 1 0 0 1 0.5 0 0.5 1
8
 1 0 0 1 0.5 0 0.5 1
8
 1 0 0 1 0 0 1 1
8
 1 0 0 1 0.5 0 0.5 1
8
 1 0 0 1 0.4 0 0.6 1
8
 1 0 0 1 0.5 0 0.5 1
8
 1 0 0 1 0.7 0 0.3 1
8
 1 0 0 1 0.5 0 0.5 1
8
 1 0 0 1 0.89 0 0.11 1
8
 1 0 0 1 0.5 0 0.5 1
8
 1 0 0 1 0.9 0 0.1 1
8
 1 0 0 1 0 0 1 1
8
 1 0 0 1 0.9 0 0.1 1
8
 1 0 0 1 0.5 0 0.5 1
8
 1 0 0 1 0.5 0 0.5 1
8
 1 0 0 1 0 0 1 1
8
 1 0 0 1 0.75 0 0.25 1
8
 1 0 0 1 0 0 1 1
8
 1 0 0 1 0.09 0 0.91 1
8
 1 0 0 1 0.5 0 0.5 1
8
 1 0 0 1 0 0 1 1
8
 1 0 0 1 0.5 0 0.5 1
8
 1 0 0 1 0 0 1 1
8
 1 0 0 1 0.9 0 0.1 1
8
 1 0 0 1 0.7 0 0.3 1
8
 1 0 0 1 0.4 0 0.6 1
8
 1 0 0 1 0.5 0 0.5 1
8
 1 0 0 1 0.1 0 0.9 1
8
 1 0 0 1 0 0 1 1
8
 1 0 0 1 0.6 0 0.4 1
8
 1 0 0 1 0.5 0 0.5 1
8
 1 0 0 1 0.4 0 0.6 1
8
 1 0 0 1 0.9 0 0.1 1
8
 1 0 0 1 0.5 0 0.5 1
8
 1 0 0 1 0.9 0 0.1 1
8
 1 0 0 1 0 0 1 1
8
 1 0 0 1 0 0 1 1
8
 1 0 0 1 0 0 1 1
8
 1 0 0 1 0.09 0 0.91 1
8
 1 0 0 1 0 0 1 1
8
 1 0 0 1 0.9 0 0.1 1
8
 1 0 0 1 0.5 0 0.5 1
8
 1 0 0 1 0 0 1 1
8
 1 0 0 1 0.9 0 0.1 1
8
 1 0 0 1 0 0 1 1
8
 1 0 0 1 0.9 0 0.1 1
8
 1 0 0 1 0 0 1 1
8
 1 0 0 1 0.05 0 0.95 1
8
 1 0 0 1 0.5 0 0.5 1
8
 1 0 0 1 0.5 0 0.5 1
8
 1 0 0 1 0 0 1 1
8
 1 0 0 1 0.5 0 0.5 1
8
 1 0 0 1 0 0 1 1
8
 1 0 0 1 0.1 0 0.9 1
8
 1 0 0 1 0 0 1 1
8
 1 0 0 1 0.5 0 0.5 1
8
 1 0 0 1 0 0 1 1
8
 1 0 0 1 0 0 1 1
8
 1 0 0 1 0.9 0 0.1 1
8
 1 0 0 1 0.01 0 0.99 1
2
 0.03 1
2
 0.9995 0.0005
2
 0.99995 5e-05
2
 0.99968 0.00032
2
 0.999995 5e-06
2
 0.9986 0.0014
2
 0.99999 1e-05
2
 0.99975 0.00025
2
 0.999 0.001
2
 0.9998 0.0002
2
 0.99999 1e-05
2
 0.9999 0.0001
2
 0.9998 0.0002
2
 0.99991 9e-05
2
 0.99999 1e-05
2
 0.9999 0.0001
2
 0.9999 0.0001
2
 0.99975 0.00025
2
 0.9999 0.0001
2
 0.9999 0.0001
2
 0.999999 1e-06
2
 0.99989 0.00011
2
 0.9999 0.0001
2
 0.9999 0.0001
2
 0.9999 0.0001
2
 0.9999 0.0001
2
 0.99998 2e-05
2
 0.99999 1e-05
2
 0.9999 0.0001
2
 0.99995 5e-05
2
 0.998 0.002
2
 0.99992 8e-05
2
 0.999998 2e-06
2
 0.999999 1e-06
2
 0.99989 0.00011
2
 0.99995 5e-05
2
 0.9999 0.0001
2
 0.99996 4e-05
2
 0.99982 0.00018
2
 0.99981 0.00019
2
 0.99996 4e-05
2
 0.9999 0.0001
2
 0.99998 2e-05
2
 0.9999 0.0001
2
 0.9999 0.0001
2
 0.9999 0.0001
2
 0.9991 0.0009
2
 0.99992 8e-05
2
 0.9999 0.0001
2
 0.9995 0.0005
2
 0.99999 1e-05
2
 0.9999 0.0001
2
 0.99998 2e-05
2
 0.9996 0.0004
2
 0.99996 4e-05
2
 0.9999 0.0001
2
 0.99995 5e-05
2
 0.9995 0.0005
2
 0.99995 5e-05
2
 0.999973 2.7e-05
2
 0.99999 1e-05
2
 0.9999 0.0001
2
 0.9999 0.0001
2
 0.9991 0.0009
2
 0.9999 0.0001
2
 0.9995 0.0005
2
 0.9999 0.0001
2
 0.99995 5e-05
2
 0.9999 0.0001
2
 0.99991 9e-05
2
 0.9996 0.0004
2
 0.99998 2e-05
2
 0.99999 1e-05
2
 0.9999 0.0001
2
 0.9999 0.0001
2
 0.9995 0.0005
2
 0.99999 1e-05
2
 0.9995 0.0005
2
 0.99922 0.00078
2
 0.9997 0.0003
2
 0.9994 0.0006
2
 0.9998 0.0002
2
 0.99993 7e-05
2
 0.9991 0.0009
2
 0.99995 5e-05
2
 0.9998 0.0002
2
 0.9998 0.0002
2
 0.9998 0.0002
2
 0.9994 0.0006
2
 0.99975 0.00025
2
 0.99999 1e-05
2
 0.9999 0.0001
2
 0.9999 0.0001
2
 0.9995 0.0005
2
 0.9999 0.0001
2
 0.9995 0.0005
2
 0.9997 0.0003
2
 0.9995 0.0005
2
 0.99984 0.00016
2
 0.9996 0.0004
2
 0.99993 7e-05
2
 0.9999 0.0001
2
 0.9999 0.0001
2
 0.99997 3e-05
2
 0.999 0.001
2
 0.9999 0.0001
2
 0.9999 0.0001
2
 0.9999 0.0001
2
 0.999 0.001
2
 0.99995 5e-05
2
 0.99998 2e-05
2
 0.9965 0.0035
2
 0.9999 0.0001
2
 0.9928 0.0072
2
 0.9999 0.0001
2
 0.99996 4e-05
2
 0.99985 0.00015
2
 0.9999 0.0001
2
 0.9999 0.0001
2
 0.9999 0.0001
2
 0.999977 2.291e-05
2
 0.9991 0.0009
2
 0.99989 0.00011
2
 0.99995 5e-05
2
 1 2e-07
2
 0.99975 0.00025
2
 0.9988 0.0012
2
 0.99995 5e-05
2
 0.994 0.006
2
 0.99987 0.00013
2
 0.9999 0.0001
2
 0.9997 0.0003
2
 0.999999 6.2e-07
2
 0.99995 5e-05
2
 0.99998 2e-05
2
 0.9999 0.0001
2
 0.99974 0.00026
2
 1 1.2e-07
2
 0.999 0.001
2
 0.9995 0.0005
2
 0.9996 0.0004
2
 0.997 0.003
2
 0.99995 5e-05
2
 0.9999 0.0001
2
 0.99998 2e-05
2
 0.99999 1e-05
2
 0.9999 0.0001
2
 0.9995 0.0005
2
 0.9999 0.0001
2
 0.9999 0.0001
2
 0.9995 0.0005
2
 0.999996 4e-06
2
 0.9999 0.0001
2
 1 1.6e-07
2
 0.9999 0.0001
2
 0.9994 0.0006
2
 0.9999 0.0001
2
 0.9999 0.0001
2
 0.999907 9.332e-05
2
 0.9999 0.0001
2
 0.9994 0.0006
2
 0.99989 0.00011
2
 0.9999 0.0001
2
 0.999969 3.12e-05
2
 0.999999 1e-06
2
 0.9992 0.0008
2
 0.99995 5e-05
2
 0.999992 8e-06
2
 0.9999 0.0001
2
 0.9999 0.0001
2
 0.99975 0.00025
2
 0.9646 0.0354
2
 0.9999 0.0001
2
 0.99999 1e-05
2
 0.9999 0.0001
2
 0.99999 1e-05
2
 0.9998 0.0002
2
 0.9999 0.0001
2
 0.99998 2e-05
2
 0.9999 0.0001
2
 0.9999 0.0001
2
 0.99999 1e-05
2
 0.9995 0.0005
2
 0.9995 0.0005
2
 0.99991 9e-05
2
 0.99991 9e-05
2
 0.9999 0.0001
2
 0.9999 0.0001
2
 0.99995 5e-05
2
 0.99997 3e-05
2
 0.9999 0.0001
2
 0.99995 5e-05
2
 0.9999 0.0001
2
 0.99994 6e-05
2
 0.998 0.002
2
 0.9998 0.0002
2
 0.9999 0.0001
2
 0.9999 0.0001
2
 0.99997 3e-05
2
 0.9999 0.0001
2
 0.99995 5e-05
2
 0.9995 0.0005
2
 0.99989 0.00011
2
 0.9999 0.0001
2
 0.9997 0.0003
2
 0.9999 0.0001
2
 0.99995 5e-05
2
 0.999999 1e-06
2
 0.9975 0.0025
2
 0.9999 0.0001
2
 0.9995 0.0005
2
 0.99997 3e-05
2
 0.9999 0.0001
2
 0.9999 0.0001
2
 0.99999 1e-05
2
 0.9999 0.0001
2
 0.99996 4e-05
2
 0.99997 3e-05
2
 0.9999 0.0001
2
 0.9995 0.0005
2
 0.9998 0.0002
2
 0.9994 0.0006
2
 0.9999 0.0001
2
 0.99997 3e-05
2
 0.99998 2e-05
2
 0.9999 0.0001
2
 0.99993 7e-05
1
 1

